\* LP *\
Minimize
OBJ: - a_0 - 0.309016994375 a_1 + 0.809016994375 a_2 + 0.809016994375 a_3
 - 0.309016994375 a_4
Subject To
_C1: a_0 + 6.28318530718 k_0 - p <= 0
_C10: a_4 + 0.980779403919 f - 1.2259742549 k_4 + 0.195119862771 p <= 0
_C2: a_0 - 6.28318530718 k_0 + p <= 0
_C3: a_1 - 0.782478985827 f + 3.91239492913 k_1 - 0.622676992299 p <= 0
_C4: a_1 + 0.782478985827 f - 3.91239492913 k_1 + 0.622676992299 p <= 0
_C5: a_2 - 0.929152033578 f + 2.32288008395 k_2 - 0.36969784757 p >= 0
_C6: a_2 + 0.929152033578 f - 2.32288008395 k_2 + 0.36969784757 p >= 0
_C7: a_3 - 0.966573028681 f + 1.6109550478 k_3 - 0.256391458957 p >= 0
_C8: a_3 + 0.966573028681 f - 1.6109550478 k_3 + 0.256391458957 p >= 0
_C9: a_4 - 0.980779403919 f + 1.2259742549 k_4 - 0.195119862771 p <= 0
Bounds
a_0 free
a_1 free
a_2 free
a_3 free
a_4 free
f free
k_0 free
k_1 free
k_2 free
k_3 free
k_4 free
p free
Generals
k_0
k_1
k_2
k_3
k_4
End
